
  12    4
  10   10   10   10

   0   0   0   0   0   3 2 3 5 
   3  10  10  10  10   4 11 7 6 4 
   3  10  10  10  10   2 6 4 
   4  10  10  10  10   3 10 9 8 
   8  10  10  10  10   1 6 
   6  10  10  10  10   2 9 8 
   9  10  10  10  10   2 9 8 
   8  10  10  10  10   1 12
   1  10  10  10  10   1 12
   5  10  10  10  10   1 12
   1  10  10  10  10   1 12
   0   0   0   0   0   0 
